\ LP format - for model browsing. Use MPS format to capture full model detail.
Minimize
  210 x(1,2) + 1663 x(1,3) + 3845 x(1,4) + 2809 x(1,5) + 3455 x(1,6)
   + 1142 x(1,7) + 4307 x(1,8) + 2503 x(1,9) + 2102 x(1,10) + 3332 x(1,11)
   + 4322 x(1,12) + 3532 x(1,13) + 4664 x(1,14) + 3004 x(1,15)
   + 4886 x(1,16) + 3238 x(1,17) + 4434 x(1,18) + 4812 x(1,19) + 210 x(2,1)
   + 1837 x(2,3) + 4016 x(2,4) + 2964 x(2,5) + 3615 x(2,6) + 1235 x(2,7)
   + 4458 x(2,8) + 2600 x(2,9) + 2171 x(2,10) + 3387 x(2,11) + 4403 x(2,12)
   + 3563 x(2,13) + 4746 x(2,14) + 2891 x(2,15) + 4968 x(2,16)
   + 3129 x(2,17) + 4486 x(2,18) + 4859 x(2,19) + 5376 x(2,20)
   + 1663 x(3,1) + 1837 x(3,2) + 2183 x(3,4) + 1191 x(3,5) + 1810 x(3,6)
   + 936 x(3,7) + 2680 x(3,8) + 1323 x(3,9) + 1288 x(3,10) + 2348 x(3,11)
   + 3069 x(3,12) + 2709 x(3,13) + 3383 x(3,14) + 3401 x(3,15)
   + 3601 x(3,16) + 3570 x(3,17) + 3373 x(3,18) + 3765 x(3,19)
   + 4122 x(3,20) + 3845 x(4,1) + 4016 x(4,2) + 2183 x(4,3) + 1126 x(4,5)
   + 508 x(4,6) + 2938 x(4,7) + 758 x(4,8) + 2019 x(4,9) + 2506 x(4,10)
   + 2513 x(4,11) + 2319 x(4,12) + 2947 x(4,13) + 2454 x(4,14)
   + 4790 x(4,15) + 2595 x(4,16) + 4871 x(4,17) + 2925 x(4,18)
   + 3226 x(4,19) + 3206 x(4,20) + 2809 x(5,1) + 2964 x(5,2) + 1191 x(5,3)
   + 1126 x(5,4) + 661 x(5,6) + 1829 x(5,7) + 1498 x(5,8) + 989 x(5,9)
   + 1415 x(5,10) + 1790 x(5,11) + 2121 x(5,12) + 2231 x(5,13)
   + 2389 x(5,14) + 3746 x(5,15) + 2590 x(5,16) + 3850 x(5,17)
   + 2575 x(5,18) + 2948 x(5,19) + 3165 x(5,20) + 3455 x(6,1) + 3615 x(6,2)
   + 1810 x(6,3) + 508 x(6,4) + 661 x(6,5) + 2490 x(6,7) + 880 x(6,8)
   + 1511 x(6,9) + 2003 x(6,10) + 2048 x(6,11) + 2014 x(6,12)
   + 2489 x(6,13) + 2206 x(6,14) + 4282 x(6,15) + 2376 x(6,16)
   + 4364 x(6,17) + 2578 x(6,18) + 2910 x(6,19) + 2984 x(6,20)
   + 1142 x(7,1) + 1235 x(7,2) + 936 x(7,3) + 2938 x(7,4) + 1829 x(7,5)
   + 2490 x(7,6) + 3290 x(7,8) + 1365 x(7,9) + 969 x(7,10) + 2208 x(7,11)
   + 3180 x(7,12) + 2446 x(7,13) + 3521 x(7,14) + 2546 x(7,15)
   + 3744 x(7,16) + 2737 x(7,17) + 3309 x(7,18) + 3692 x(7,19)
   + 4174 x(7,20) + 4307 x(8,1) + 4458 x(8,2) + 2680 x(8,3) + 758 x(8,4)
   + 1498 x(8,5) + 880 x(8,6) + 3290 x(8,7) + 2123 x(8,9) + 2654 x(8,10)
   + 2288 x(8,11) + 1783 x(8,12) + 2678 x(8,13) + 1840 x(8,14)
   + 4775 x(8,15) + 1944 x(8,16) + 4818 x(8,17) + 2421 x(8,18)
   + 2668 x(8,19) + 2544 x(8,20) + 2503 x(9,1) + 2600 x(9,2) + 1323 x(9,3)
   + 2019 x(9,4) + 989 x(9,5) + 1511 x(9,6) + 1365 x(9,7) + 2123 x(9,8)
   + 533 x(9,10) + 1027 x(9,11) + 1835 x(9,12) + 1411 x(9,13)
   + 2171 x(9,14) + 2776 x(9,15) + 2393 x(9,16) + 2869 x(9,17)
   + 2061 x(9,18) + 2454 x(9,19) + 2861 x(9,20) + 2102 x(10,1)
   + 2171 x(10,2) + 1288 x(10,3) + 2506 x(10,4) + 1415 x(10,5)
   + 2003 x(10,6) + 969 x(10,7) + 2654 x(10,8) + 533 x(10,9)
   + 1239 x(10,11) + 2233 x(10,12) + 1506 x(10,13) + 2577 x(10,14)
   + 2342 x(10,15) + 2799 x(10,16) + 2463 x(10,17) + 2340 x(10,18)
   + 2724 x(10,19) + 3209 x(10,20) + 3332 x(11,1) + 3387 x(11,2)
   + 2348 x(11,3) + 2513 x(11,4) + 1790 x(11,5) + 2048 x(11,6)
   + 2208 x(11,7) + 2288 x(11,8) + 1027 x(11,9) + 1239 x(11,10)
   + 1118 x(11,12) + 445 x(11,13) + 1453 x(11,14) + 2578 x(11,15)
   + 1662 x(11,16) + 2582 x(11,17) + 1102 x(11,18) + 1484 x(11,19)
   + 1995 x(11,20) + 4322 x(12,1) + 4403 x(12,2) + 3069 x(12,3)
   + 2319 x(12,4) + 2121 x(12,5) + 2014 x(12,6) + 3180 x(12,7)
   + 1783 x(12,8) + 1835 x(12,9) + 2233 x(12,10) + 1118 x(12,11)
   + 1265 x(12,13) + 344 x(12,14) + 3607 x(12,15) + 565 x(12,16)
   + 3572 x(12,17) + 641 x(12,18) + 906 x(12,19) + 1056 x(12,20)
   + 3532 x(13,1) + 3563 x(13,2) + 2709 x(13,3) + 2947 x(13,4)
   + 2231 x(13,5) + 2489 x(13,6) + 2446 x(13,7) + 2678 x(13,8)
   + 1411 x(13,9) + 1506 x(13,10) + 445 x(13,11) + 1265 x(13,12)
   + 1556 x(13,14) + 2342 x(13,15) + 1736 x(13,16) + 2309 x(13,17)
   + 999 x(13,18) + 1328 x(13,19) + 1935 x(13,20) + 4664 x(14,1)
   + 4746 x(14,2) + 3383 x(14,3) + 2454 x(14,4) + 2389 x(14,5)
   + 2206 x(14,6) + 3521 x(14,7) + 1840 x(14,8) + 2171 x(14,9)
   + 2577 x(14,10) + 1453 x(14,11) + 344 x(14,12) + 1556 x(14,13)
   + 3894 x(14,15) + 222 x(14,16) + 3846 x(14,17) + 741 x(14,18)
   + 856 x(14,19) + 782 x(14,20) + 3004 x(15,1) + 2891 x(15,2)
   + 3401 x(15,3) + 4790 x(15,4) + 3746 x(15,5) + 4282 x(15,6)
   + 2546 x(15,7) + 4775 x(15,8) + 2776 x(15,9) + 2342 x(15,10)
   + 2578 x(15,11) + 3607 x(15,12) + 2342 x(15,13) + 3894 x(15,14)
   + 4062 x(15,16) + 245 x(15,17) + 3256 x(15,18) + 3474 x(15,19)
   + 4146 x(15,20) + 4886 x(16,1) + 4968 x(16,2) + 3601 x(16,3)
   + 2595 x(16,4) + 2590 x(16,5) + 2376 x(16,6) + 3744 x(16,7)
   + 1944 x(16,8) + 2393 x(16,9) + 2799 x(16,10) + 1662 x(16,11)
   + 565 x(16,12) + 1736 x(16,13) + 222 x(16,14) + 4062 x(16,15)
   + 4005 x(16,17) + 843 x(16,18) + 857 x(16,19) + 611 x(16,20)
   + 3238 x(17,1) + 3129 x(17,2) + 3570 x(17,3) + 4871 x(17,4)
   + 3850 x(17,5) + 4364 x(17,6) + 2737 x(17,7) + 4818 x(17,8)
   + 2869 x(17,9) + 2463 x(17,10) + 2582 x(17,11) + 3572 x(17,12)
   + 2309 x(17,13) + 3846 x(17,14) + 245 x(17,15) + 4005 x(17,16)
   + 3185 x(17,18) + 3379 x(17,19) + 4054 x(17,20) + 4434 x(18,1)
   + 4486 x(18,2) + 3373 x(18,3) + 2925 x(18,4) + 2575 x(18,5)
   + 2578 x(18,6) + 3309 x(18,7) + 2421 x(18,8) + 2061 x(18,9)
   + 2340 x(18,10) + 1102 x(18,11) + 641 x(18,12) + 999 x(18,13)
   + 741 x(18,14) + 3256 x(18,15) + 843 x(18,16) + 3185 x(18,17)
   + 393 x(18,19) + 935 x(18,20) + 4812 x(19,1) + 4859 x(19,2)
   + 3765 x(19,3) + 3226 x(19,4) + 2948 x(19,5) + 2910 x(19,6)
   + 3692 x(19,7) + 2668 x(19,8) + 2454 x(19,9) + 2724 x(19,10)
   + 1484 x(19,11) + 906 x(19,12) + 1328 x(19,13) + 856 x(19,14)
   + 3474 x(19,15) + 857 x(19,16) + 3379 x(19,17) + 393 x(19,18)
   + 675 x(19,20) + 5376 x(20,2) + 4122 x(20,3) + 3206 x(20,4)
   + 3165 x(20,5) + 2984 x(20,6) + 4174 x(20,7) + 2544 x(20,8)
   + 2861 x(20,9) + 3209 x(20,10) + 1995 x(20,11) + 1056 x(20,12)
   + 1935 x(20,13) + 782 x(20,14) + 4146 x(20,15) + 611 x(20,16)
   + 4054 x(20,17) + 935 x(20,18) + 675 x(20,19)
Subject To
 balance(1): x(1,2) + x(1,3) + x(1,4) + x(1,5) + x(1,6) + x(1,7) + x(1,8)
   + x(1,9) + x(1,10) + x(1,11) + x(1,12) + x(1,13) + x(1,14) + x(1,15)
   + x(1,16) + x(1,17) + x(1,18) + x(1,19) - x(2,1) - x(3,1) - x(4,1)
   - x(5,1) - x(6,1) - x(7,1) - x(8,1) - x(9,1) - x(10,1) - x(11,1)
   - x(12,1) - x(13,1) - x(14,1) - x(15,1) - x(16,1) - x(17,1) - x(18,1)
   - x(19,1) = 1
 balance(2): - x(1,2) + x(2,1) + x(2,3) + x(2,4) + x(2,5) + x(2,6) + x(2,7)
   + x(2,8) + x(2,9) + x(2,10) + x(2,11) + x(2,12) + x(2,13) + x(2,14)
   + x(2,15) + x(2,16) + x(2,17) + x(2,18) + x(2,19) + x(2,20) - x(3,2)
   - x(4,2) - x(5,2) - x(6,2) - x(7,2) - x(8,2) - x(9,2) - x(10,2)
   - x(11,2) - x(12,2) - x(13,2) - x(14,2) - x(15,2) - x(16,2) - x(17,2)
   - x(18,2) - x(19,2) - x(20,2) = 0
 balance(3): - x(1,3) - x(2,3) + x(3,1) + x(3,2) + x(3,4) + x(3,5) + x(3,6)
   + x(3,7) + x(3,8) + x(3,9) + x(3,10) + x(3,11) + x(3,12) + x(3,13)
   + x(3,14) + x(3,15) + x(3,16) + x(3,17) + x(3,18) + x(3,19) + x(3,20)
   - x(4,3) - x(5,3) - x(6,3) - x(7,3) - x(8,3) - x(9,3) - x(10,3)
   - x(11,3) - x(12,3) - x(13,3) - x(14,3) - x(15,3) - x(16,3) - x(17,3)
   - x(18,3) - x(19,3) - x(20,3) = 0
 balance(4): - x(1,4) - x(2,4) - x(3,4) + x(4,1) + x(4,2) + x(4,3) + x(4,5)
   + x(4,6) + x(4,7) + x(4,8) + x(4,9) + x(4,10) + x(4,11) + x(4,12)
   + x(4,13) + x(4,14) + x(4,15) + x(4,16) + x(4,17) + x(4,18) + x(4,19)
   + x(4,20) - x(5,4) - x(6,4) - x(7,4) - x(8,4) - x(9,4) - x(10,4)
   - x(11,4) - x(12,4) - x(13,4) - x(14,4) - x(15,4) - x(16,4) - x(17,4)
   - x(18,4) - x(19,4) - x(20,4) = 0
 balance(5): - x(1,5) - x(2,5) - x(3,5) - x(4,5) + x(5,1) + x(5,2) + x(5,3)
   + x(5,4) + x(5,6) + x(5,7) + x(5,8) + x(5,9) + x(5,10) + x(5,11)
   + x(5,12) + x(5,13) + x(5,14) + x(5,15) + x(5,16) + x(5,17) + x(5,18)
   + x(5,19) + x(5,20) - x(6,5) - x(7,5) - x(8,5) - x(9,5) - x(10,5)
   - x(11,5) - x(12,5) - x(13,5) - x(14,5) - x(15,5) - x(16,5) - x(17,5)
   - x(18,5) - x(19,5) - x(20,5) = 0
 balance(6): - x(1,6) - x(2,6) - x(3,6) - x(4,6) - x(5,6) + x(6,1) + x(6,2)
   + x(6,3) + x(6,4) + x(6,5) + x(6,7) + x(6,8) + x(6,9) + x(6,10)
   + x(6,11) + x(6,12) + x(6,13) + x(6,14) + x(6,15) + x(6,16) + x(6,17)
   + x(6,18) + x(6,19) + x(6,20) - x(7,6) - x(8,6) - x(9,6) - x(10,6)
   - x(11,6) - x(12,6) - x(13,6) - x(14,6) - x(15,6) - x(16,6) - x(17,6)
   - x(18,6) - x(19,6) - x(20,6) = 0
 balance(7): - x(1,7) - x(2,7) - x(3,7) - x(4,7) - x(5,7) - x(6,7) + x(7,1)
   + x(7,2) + x(7,3) + x(7,4) + x(7,5) + x(7,6) + x(7,8) + x(7,9) + x(7,10)
   + x(7,11) + x(7,12) + x(7,13) + x(7,14) + x(7,15) + x(7,16) + x(7,17)
   + x(7,18) + x(7,19) + x(7,20) - x(8,7) - x(9,7) - x(10,7) - x(11,7)
   - x(12,7) - x(13,7) - x(14,7) - x(15,7) - x(16,7) - x(17,7) - x(18,7)
   - x(19,7) - x(20,7) = 0
 balance(8): - x(1,8) - x(2,8) - x(3,8) - x(4,8) - x(5,8) - x(6,8) - x(7,8)
   + x(8,1) + x(8,2) + x(8,3) + x(8,4) + x(8,5) + x(8,6) + x(8,7) + x(8,9)
   + x(8,10) + x(8,11) + x(8,12) + x(8,13) + x(8,14) + x(8,15) + x(8,16)
   + x(8,17) + x(8,18) + x(8,19) + x(8,20) - x(9,8) - x(10,8) - x(11,8)
   - x(12,8) - x(13,8) - x(14,8) - x(15,8) - x(16,8) - x(17,8) - x(18,8)
   - x(19,8) - x(20,8) = 0
 balance(9): - x(1,9) - x(2,9) - x(3,9) - x(4,9) - x(5,9) - x(6,9) - x(7,9)
   - x(8,9) + x(9,1) + x(9,2) + x(9,3) + x(9,4) + x(9,5) + x(9,6) + x(9,7)
   + x(9,8) + x(9,10) + x(9,11) + x(9,12) + x(9,13) + x(9,14) + x(9,15)
   + x(9,16) + x(9,17) + x(9,18) + x(9,19) + x(9,20) - x(10,9) - x(11,9)
   - x(12,9) - x(13,9) - x(14,9) - x(15,9) - x(16,9) - x(17,9) - x(18,9)
   - x(19,9) - x(20,9) = 0
 balance(10): - x(1,10) - x(2,10) - x(3,10) - x(4,10) - x(5,10) - x(6,10)
   - x(7,10) - x(8,10) - x(9,10) + x(10,1) + x(10,2) + x(10,3) + x(10,4)
   + x(10,5) + x(10,6) + x(10,7) + x(10,8) + x(10,9) + x(10,11) + x(10,12)
   + x(10,13) + x(10,14) + x(10,15) + x(10,16) + x(10,17) + x(10,18)
   + x(10,19) + x(10,20) - x(11,10) - x(12,10) - x(13,10) - x(14,10)
   - x(15,10) - x(16,10) - x(17,10) - x(18,10) - x(19,10) - x(20,10) = 0
 balance(11): - x(1,11) - x(2,11) - x(3,11) - x(4,11) - x(5,11) - x(6,11)
   - x(7,11) - x(8,11) - x(9,11) - x(10,11) + x(11,1) + x(11,2) + x(11,3)
   + x(11,4) + x(11,5) + x(11,6) + x(11,7) + x(11,8) + x(11,9) + x(11,10)
   + x(11,12) + x(11,13) + x(11,14) + x(11,15) + x(11,16) + x(11,17)
   + x(11,18) + x(11,19) + x(11,20) - x(12,11) - x(13,11) - x(14,11)
   - x(15,11) - x(16,11) - x(17,11) - x(18,11) - x(19,11) - x(20,11) = 0
 balance(12): - x(1,12) - x(2,12) - x(3,12) - x(4,12) - x(5,12) - x(6,12)
   - x(7,12) - x(8,12) - x(9,12) - x(10,12) - x(11,12) + x(12,1) + x(12,2)
   + x(12,3) + x(12,4) + x(12,5) + x(12,6) + x(12,7) + x(12,8) + x(12,9)
   + x(12,10) + x(12,11) + x(12,13) + x(12,14) + x(12,15) + x(12,16)
   + x(12,17) + x(12,18) + x(12,19) + x(12,20) - x(13,12) - x(14,12)
   - x(15,12) - x(16,12) - x(17,12) - x(18,12) - x(19,12) - x(20,12) = 0
 balance(13): - x(1,13) - x(2,13) - x(3,13) - x(4,13) - x(5,13) - x(6,13)
   - x(7,13) - x(8,13) - x(9,13) - x(10,13) - x(11,13) - x(12,13) + x(13,1)
   + x(13,2) + x(13,3) + x(13,4) + x(13,5) + x(13,6) + x(13,7) + x(13,8)
   + x(13,9) + x(13,10) + x(13,11) + x(13,12) + x(13,14) + x(13,15)
   + x(13,16) + x(13,17) + x(13,18) + x(13,19) + x(13,20) - x(14,13)
   - x(15,13) - x(16,13) - x(17,13) - x(18,13) - x(19,13) - x(20,13) = 0
 balance(14): - x(1,14) - x(2,14) - x(3,14) - x(4,14) - x(5,14) - x(6,14)
   - x(7,14) - x(8,14) - x(9,14) - x(10,14) - x(11,14) - x(12,14)
   - x(13,14) + x(14,1) + x(14,2) + x(14,3) + x(14,4) + x(14,5) + x(14,6)
   + x(14,7) + x(14,8) + x(14,9) + x(14,10) + x(14,11) + x(14,12)
   + x(14,13) + x(14,15) + x(14,16) + x(14,17) + x(14,18) + x(14,19)
   + x(14,20) - x(15,14) - x(16,14) - x(17,14) - x(18,14) - x(19,14)
   - x(20,14) = 0
 balance(15): - x(1,15) - x(2,15) - x(3,15) - x(4,15) - x(5,15) - x(6,15)
   - x(7,15) - x(8,15) - x(9,15) - x(10,15) - x(11,15) - x(12,15)
   - x(13,15) - x(14,15) + x(15,1) + x(15,2) + x(15,3) + x(15,4) + x(15,5)
   + x(15,6) + x(15,7) + x(15,8) + x(15,9) + x(15,10) + x(15,11) + x(15,12)
   + x(15,13) + x(15,14) + x(15,16) + x(15,17) + x(15,18) + x(15,19)
   + x(15,20) - x(16,15) - x(17,15) - x(18,15) - x(19,15) - x(20,15) = 0
 balance(16): - x(1,16) - x(2,16) - x(3,16) - x(4,16) - x(5,16) - x(6,16)
   - x(7,16) - x(8,16) - x(9,16) - x(10,16) - x(11,16) - x(12,16)
   - x(13,16) - x(14,16) - x(15,16) + x(16,1) + x(16,2) + x(16,3) + x(16,4)
   + x(16,5) + x(16,6) + x(16,7) + x(16,8) + x(16,9) + x(16,10) + x(16,11)
   + x(16,12) + x(16,13) + x(16,14) + x(16,15) + x(16,17) + x(16,18)
   + x(16,19) + x(16,20) - x(17,16) - x(18,16) - x(19,16) - x(20,16) = 0
 balance(17): - x(1,17) - x(2,17) - x(3,17) - x(4,17) - x(5,17) - x(6,17)
   - x(7,17) - x(8,17) - x(9,17) - x(10,17) - x(11,17) - x(12,17)
   - x(13,17) - x(14,17) - x(15,17) - x(16,17) + x(17,1) + x(17,2)
   + x(17,3) + x(17,4) + x(17,5) + x(17,6) + x(17,7) + x(17,8) + x(17,9)
   + x(17,10) + x(17,11) + x(17,12) + x(17,13) + x(17,14) + x(17,15)
   + x(17,16) + x(17,18) + x(17,19) + x(17,20) - x(18,17) - x(19,17)
   - x(20,17) = 0
 balance(18): - x(1,18) - x(2,18) - x(3,18) - x(4,18) - x(5,18) - x(6,18)
   - x(7,18) - x(8,18) - x(9,18) - x(10,18) - x(11,18) - x(12,18)
   - x(13,18) - x(14,18) - x(15,18) - x(16,18) - x(17,18) + x(18,1)
   + x(18,2) + x(18,3) + x(18,4) + x(18,5) + x(18,6) + x(18,7) + x(18,8)
   + x(18,9) + x(18,10) + x(18,11) + x(18,12) + x(18,13) + x(18,14)
   + x(18,15) + x(18,16) + x(18,17) + x(18,19) + x(18,20) - x(19,18)
   - x(20,18) = 0
 balance(19): - x(1,19) - x(2,19) - x(3,19) - x(4,19) - x(5,19) - x(6,19)
   - x(7,19) - x(8,19) - x(9,19) - x(10,19) - x(11,19) - x(12,19)
   - x(13,19) - x(14,19) - x(15,19) - x(16,19) - x(17,19) - x(18,19)
   + x(19,1) + x(19,2) + x(19,3) + x(19,4) + x(19,5) + x(19,6) + x(19,7)
   + x(19,8) + x(19,9) + x(19,10) + x(19,11) + x(19,12) + x(19,13)
   + x(19,14) + x(19,15) + x(19,16) + x(19,17) + x(19,18) + x(19,20)
   - x(20,19) = 0
 balance(20): - x(2,20) - x(3,20) - x(4,20) - x(5,20) - x(6,20) - x(7,20)
   - x(8,20) - x(9,20) - x(10,20) - x(11,20) - x(12,20) - x(13,20)
   - x(14,20) - x(15,20) - x(16,20) - x(17,20) - x(18,20) - x(19,20)
   + x(20,2) + x(20,3) + x(20,4) + x(20,5) + x(20,6) + x(20,7) + x(20,8)
   + x(20,9) + x(20,10) + x(20,11) + x(20,12) + x(20,13) + x(20,14)
   + x(20,15) + x(20,16) + x(20,17) + x(20,18) + x(20,19) = -1
Bounds
 x(1,2) <= 1
 x(1,3) <= 1
 x(1,4) <= 1
 x(1,5) <= 1
 x(1,6) <= 1
 x(1,7) <= 1
 x(1,8) <= 1
 x(1,9) <= 1
 x(1,10) <= 1
 x(1,11) <= 1
 x(1,12) <= 1
 x(1,13) <= 1
 x(1,14) <= 1
 x(1,15) <= 1
 x(1,16) <= 1
 x(1,17) <= 1
 x(1,18) <= 1
 x(1,19) <= 1
 x(2,1) <= 1
 x(2,3) <= 1
 x(2,4) <= 1
 x(2,5) <= 1
 x(2,6) <= 1
 x(2,7) <= 1
 x(2,8) <= 1
 x(2,9) <= 1
 x(2,10) <= 1
 x(2,11) <= 1
 x(2,12) <= 1
 x(2,13) <= 1
 x(2,14) <= 1
 x(2,15) <= 1
 x(2,16) <= 1
 x(2,17) <= 1
 x(2,18) <= 1
 x(2,19) <= 1
 x(2,20) <= 1
 x(3,1) <= 1
 x(3,2) <= 1
 x(3,4) <= 1
 x(3,5) <= 1
 x(3,6) <= 1
 x(3,7) <= 1
 x(3,8) <= 1
 x(3,9) <= 1
 x(3,10) <= 1
 x(3,11) <= 1
 x(3,12) <= 1
 x(3,13) <= 1
 x(3,14) <= 1
 x(3,15) <= 1
 x(3,16) <= 1
 x(3,17) <= 1
 x(3,18) <= 1
 x(3,19) <= 1
 x(3,20) <= 1
 x(4,1) <= 1
 x(4,2) <= 1
 x(4,3) <= 1
 x(4,5) <= 1
 x(4,6) <= 1
 x(4,7) <= 1
 x(4,8) <= 1
 x(4,9) <= 1
 x(4,10) <= 1
 x(4,11) <= 1
 x(4,12) <= 1
 x(4,13) <= 1
 x(4,14) <= 1
 x(4,15) <= 1
 x(4,16) <= 1
 x(4,17) <= 1
 x(4,18) <= 1
 x(4,19) <= 1
 x(4,20) <= 1
 x(5,1) <= 1
 x(5,2) <= 1
 x(5,3) <= 1
 x(5,4) <= 1
 x(5,6) <= 1
 x(5,7) <= 1
 x(5,8) <= 1
 x(5,9) <= 1
 x(5,10) <= 1
 x(5,11) <= 1
 x(5,12) <= 1
 x(5,13) <= 1
 x(5,14) <= 1
 x(5,15) <= 1
 x(5,16) <= 1
 x(5,17) <= 1
 x(5,18) <= 1
 x(5,19) <= 1
 x(5,20) <= 1
 x(6,1) <= 1
 x(6,2) <= 1
 x(6,3) <= 1
 x(6,4) <= 1
 x(6,5) <= 1
 x(6,7) <= 1
 x(6,8) <= 1
 x(6,9) <= 1
 x(6,10) <= 1
 x(6,11) <= 1
 x(6,12) <= 1
 x(6,13) <= 1
 x(6,14) <= 1
 x(6,15) <= 1
 x(6,16) <= 1
 x(6,17) <= 1
 x(6,18) <= 1
 x(6,19) <= 1
 x(6,20) <= 1
 x(7,1) <= 1
 x(7,2) <= 1
 x(7,3) <= 1
 x(7,4) <= 1
 x(7,5) <= 1
 x(7,6) <= 1
 x(7,8) <= 1
 x(7,9) <= 1
 x(7,10) <= 1
 x(7,11) <= 1
 x(7,12) <= 1
 x(7,13) <= 1
 x(7,14) <= 1
 x(7,15) <= 1
 x(7,16) <= 1
 x(7,17) <= 1
 x(7,18) <= 1
 x(7,19) <= 1
 x(7,20) <= 1
 x(8,1) <= 1
 x(8,2) <= 1
 x(8,3) <= 1
 x(8,4) <= 1
 x(8,5) <= 1
 x(8,6) <= 1
 x(8,7) <= 1
 x(8,9) <= 1
 x(8,10) <= 1
 x(8,11) <= 1
 x(8,12) <= 1
 x(8,13) <= 1
 x(8,14) <= 1
 x(8,15) <= 1
 x(8,16) <= 1
 x(8,17) <= 1
 x(8,18) <= 1
 x(8,19) <= 1
 x(8,20) <= 1
 x(9,1) <= 1
 x(9,2) <= 1
 x(9,3) <= 1
 x(9,4) <= 1
 x(9,5) <= 1
 x(9,6) <= 1
 x(9,7) <= 1
 x(9,8) <= 1
 x(9,10) <= 1
 x(9,11) <= 1
 x(9,12) <= 1
 x(9,13) <= 1
 x(9,14) <= 1
 x(9,15) <= 1
 x(9,16) <= 1
 x(9,17) <= 1
 x(9,18) <= 1
 x(9,19) <= 1
 x(9,20) <= 1
 x(10,1) <= 1
 x(10,2) <= 1
 x(10,3) <= 1
 x(10,4) <= 1
 x(10,5) <= 1
 x(10,6) <= 1
 x(10,7) <= 1
 x(10,8) <= 1
 x(10,9) <= 1
 x(10,11) <= 1
 x(10,12) <= 1
 x(10,13) <= 1
 x(10,14) <= 1
 x(10,15) <= 1
 x(10,16) <= 1
 x(10,17) <= 1
 x(10,18) <= 1
 x(10,19) <= 1
 x(10,20) <= 1
 x(11,1) <= 1
 x(11,2) <= 1
 x(11,3) <= 1
 x(11,4) <= 1
 x(11,5) <= 1
 x(11,6) <= 1
 x(11,7) <= 1
 x(11,8) <= 1
 x(11,9) <= 1
 x(11,10) <= 1
 x(11,12) <= 1
 x(11,13) <= 1
 x(11,14) <= 1
 x(11,15) <= 1
 x(11,16) <= 1
 x(11,17) <= 1
 x(11,18) <= 1
 x(11,19) <= 1
 x(11,20) <= 1
 x(12,1) <= 1
 x(12,2) <= 1
 x(12,3) <= 1
 x(12,4) <= 1
 x(12,5) <= 1
 x(12,6) <= 1
 x(12,7) <= 1
 x(12,8) <= 1
 x(12,9) <= 1
 x(12,10) <= 1
 x(12,11) <= 1
 x(12,13) <= 1
 x(12,14) <= 1
 x(12,15) <= 1
 x(12,16) <= 1
 x(12,17) <= 1
 x(12,18) <= 1
 x(12,19) <= 1
 x(12,20) <= 1
 x(13,1) <= 1
 x(13,2) <= 1
 x(13,3) <= 1
 x(13,4) <= 1
 x(13,5) <= 1
 x(13,6) <= 1
 x(13,7) <= 1
 x(13,8) <= 1
 x(13,9) <= 1
 x(13,10) <= 1
 x(13,11) <= 1
 x(13,12) <= 1
 x(13,14) <= 1
 x(13,15) <= 1
 x(13,16) <= 1
 x(13,17) <= 1
 x(13,18) <= 1
 x(13,19) <= 1
 x(13,20) <= 1
 x(14,1) <= 1
 x(14,2) <= 1
 x(14,3) <= 1
 x(14,4) <= 1
 x(14,5) <= 1
 x(14,6) <= 1
 x(14,7) <= 1
 x(14,8) <= 1
 x(14,9) <= 1
 x(14,10) <= 1
 x(14,11) <= 1
 x(14,12) <= 1
 x(14,13) <= 1
 x(14,15) <= 1
 x(14,16) <= 1
 x(14,17) <= 1
 x(14,18) <= 1
 x(14,19) <= 1
 x(14,20) <= 1
 x(15,1) <= 1
 x(15,2) <= 1
 x(15,3) <= 1
 x(15,4) <= 1
 x(15,5) <= 1
 x(15,6) <= 1
 x(15,7) <= 1
 x(15,8) <= 1
 x(15,9) <= 1
 x(15,10) <= 1
 x(15,11) <= 1
 x(15,12) <= 1
 x(15,13) <= 1
 x(15,14) <= 1
 x(15,16) <= 1
 x(15,17) <= 1
 x(15,18) <= 1
 x(15,19) <= 1
 x(15,20) <= 1
 x(16,1) <= 1
 x(16,2) <= 1
 x(16,3) <= 1
 x(16,4) <= 1
 x(16,5) <= 1
 x(16,6) <= 1
 x(16,7) <= 1
 x(16,8) <= 1
 x(16,9) <= 1
 x(16,10) <= 1
 x(16,11) <= 1
 x(16,12) <= 1
 x(16,13) <= 1
 x(16,14) <= 1
 x(16,15) <= 1
 x(16,17) <= 1
 x(16,18) <= 1
 x(16,19) <= 1
 x(16,20) <= 1
 x(17,1) <= 1
 x(17,2) <= 1
 x(17,3) <= 1
 x(17,4) <= 1
 x(17,5) <= 1
 x(17,6) <= 1
 x(17,7) <= 1
 x(17,8) <= 1
 x(17,9) <= 1
 x(17,10) <= 1
 x(17,11) <= 1
 x(17,12) <= 1
 x(17,13) <= 1
 x(17,14) <= 1
 x(17,15) <= 1
 x(17,16) <= 1
 x(17,18) <= 1
 x(17,19) <= 1
 x(17,20) <= 1
 x(18,1) <= 1
 x(18,2) <= 1
 x(18,3) <= 1
 x(18,4) <= 1
 x(18,5) <= 1
 x(18,6) <= 1
 x(18,7) <= 1
 x(18,8) <= 1
 x(18,9) <= 1
 x(18,10) <= 1
 x(18,11) <= 1
 x(18,12) <= 1
 x(18,13) <= 1
 x(18,14) <= 1
 x(18,15) <= 1
 x(18,16) <= 1
 x(18,17) <= 1
 x(18,19) <= 1
 x(18,20) <= 1
 x(19,1) <= 1
 x(19,2) <= 1
 x(19,3) <= 1
 x(19,4) <= 1
 x(19,5) <= 1
 x(19,6) <= 1
 x(19,7) <= 1
 x(19,8) <= 1
 x(19,9) <= 1
 x(19,10) <= 1
 x(19,11) <= 1
 x(19,12) <= 1
 x(19,13) <= 1
 x(19,14) <= 1
 x(19,15) <= 1
 x(19,16) <= 1
 x(19,17) <= 1
 x(19,18) <= 1
 x(19,20) <= 1
 x(20,2) <= 1
 x(20,3) <= 1
 x(20,4) <= 1
 x(20,5) <= 1
 x(20,6) <= 1
 x(20,7) <= 1
 x(20,8) <= 1
 x(20,9) <= 1
 x(20,10) <= 1
 x(20,11) <= 1
 x(20,12) <= 1
 x(20,13) <= 1
 x(20,14) <= 1
 x(20,15) <= 1
 x(20,16) <= 1
 x(20,17) <= 1
 x(20,18) <= 1
 x(20,19) <= 1
End
